513274639962975763507,2,1,2,013,15,1,2,07,5,1,2,06,2,1,2,015,2,1,2,06,4,1,2,04,12,1,2,01,5,1,2,08,5,1,2,07,11,1,2,01,8,1,2,08,15,1,2,04,12,1,2,013,13,1,2,08,9,1,2,010,15,1,2,02,4,1,2,05,4,1,2,015,12,1,2,08,8,1,2,03,14,1,2,015,10,1,2,04,11,1,2,05,15,1,2,011,10,1,2,08,13,1,2,08,6,1,2,010,10,1,2,03,4,1,2,09,13,1,2,015,8,1,2,08,8,1,2,01,6,1,2,010,6,1,2,07,8,1,2,012,9,1,2,05,10,1,2,08,2,1,2,06,15,1,2,015,2,1,2,04,2,1,2,09,6,1,2,011,2,1,2,012,2,1,2,015,10,1,2,09,12,1,2,01,11,1,2,02,11,1,2,010,14,1,2,010,9,1,2,0